interdiction/MCDM/NO_CORR/GEN_FROM_60/10_ITEMS_1000_GEN/K5010W20.KNP.mps
NAME          BLANK   
ROWS
 N  OBJROW
 L  R0000000
COLUMNS
    C0000000  OBJROW     -450.         R0000000  622.        
    C0000001  OBJROW     -89.          R0000000  763.        
    C0000002  OBJROW     -184.         R0000000  342.        
    C0000003  OBJROW     -75.          R0000000  740.        
    C0000004  OBJROW     -840.         R0000000  821.        
    C0000005  OBJROW     -938.         R0000000  511.        
    C0000006  OBJROW     -316.         R0000000  874.        
    C0000007  OBJROW     -487.         R0000000  7.          
    C0000008  OBJROW     -275.         R0000000  399.        
    C0000009  OBJROW     -931.         R0000000  231.        
RHS
    RHS       R0000000  15098.      
BOUNDS
 BV BOUND     C0000000  1.          
 BV BOUND     C0000001  1.          
 BV BOUND     C0000002  1.          
 BV BOUND     C0000003  1.          
 BV BOUND     C0000004  1.          
 BV BOUND     C0000005  1.          
 BV BOUND     C0000006  1.          
 BV BOUND     C0000007  1.          
 BV BOUND     C0000008  1.          
 BV BOUND     C0000009  1.          
ENDATA
