interdiction/MCDM/NO_CORR/GEN_FROM_60/10_ITEMS_1000_GEN/K5010W20.KNP.txt
N 10
M 11
LC 10
LC 11
LC 12
LC 13
LC 14
LC 15
LC 16
LC 17
LC 18
LC 19
LR 1
LR 2
LR 3
LR 4
LR 5
LR 6
LR 7
LR 8
LR 9
LR 10
LR 11
LO -450
LO -89
LO -184
LO -75
LO -840
LO -938
LO -316
LO -487
LO -275
LO -931
OS 1
IC 890
IC 756
IC 991
IC 147
IC 784
IC 102
IC 617
IC 232
IC 473
IC 791
IB 2892
